2025-03-05 23:57:06,827 - INFO - Set parameter WLSAccessID
2025-03-05 23:57:06,827 - INFO - Set parameter WLSSecret
2025-03-05 23:57:06,827 - INFO - Set parameter LicenseID to value 2628134
2025-03-05 23:57:07,087 - INFO - Academic license 2628134 - for non-commercial use only - registered to bs___@uw.edu
2025-03-05 23:57:07,088 - INFO - Initialization complete
2025-03-05 23:57:07,356 - INFO - Variables created successfully
2025-03-05 23:57:08,766 - INFO - Constraints added successfully
2025-03-05 23:57:08,768 - INFO - Objective function with soft constraints set successfully
2025-03-05 23:57:08,837 - INFO - ================================================================================
2025-03-05 23:57:08,837 - INFO - SYSTEM CONFIGURATION
2025-03-05 23:57:08,838 - INFO - System has 373.7 GB of RAM available
2025-03-05 23:57:08,838 - INFO - Setting Gurobi memory limit to 355 GB (95% of available RAM)
2025-03-05 23:57:08,838 - INFO - Set parameter MemLimit to value 363520
2025-03-05 23:57:08,838 - INFO - Set parameter Presolve to value 1
2025-03-05 23:57:08,838 - INFO - Set parameter Method to value 1
2025-03-05 23:57:08,838 - INFO - Set parameter MIPFocus to value 1
2025-03-05 23:57:08,838 - INFO - Set parameter MIPGap to value 0.1
2025-03-05 23:57:08,838 - INFO - Set parameter TimeLimit to value 25200
2025-03-05 23:57:08,838 - INFO - Set parameter NodefileStart to value 0.95
2025-03-05 23:57:08,838 - INFO - Set parameter NodefileDir to value "/tmp/gurobi_nodefiles"
2025-03-05 23:57:08,838 - INFO - Node file directory: /tmp/gurobi_nodefiles
2025-03-05 23:57:08,838 - INFO - Will switch to disk storage when memory reaches 95.0% of allocated RAM
2025-03-05 23:57:08,840 - INFO - Set parameter Threads to value 32
2025-03-05 23:57:08,840 - INFO - Using 32 threads out of 48 available cores
2025-03-05 23:57:08,840 - INFO - Generating initial solution using advanced greedy algorithm...
2025-03-05 23:57:08,970 - INFO - Greedy algorithm generated initial values for: 881 x vars, 68 z vars, 881 y vars
2025-03-05 23:57:08,975 - INFO - Initial solution: 881/200 students assigned, 68/68 sections used
2025-03-05 23:57:08,975 - INFO - ================================================================================
2025-03-05 23:57:08,975 - INFO - STARTING OPTIMIZATION
2025-03-05 23:57:08,975 - INFO - Maximum possible satisfied requests: 1200
2025-03-05 23:57:08,975 - INFO - ================================================================================
2025-03-05 23:57:09,008 - INFO - Gurobi Optimizer version 10.0.3 build v10.0.3rc0 (linux64)
2025-03-05 23:57:09,008 - INFO - 
2025-03-05 23:57:09,008 - INFO - CPU model: Intel(R) Xeon(R) Platinum 8259CL CPU @ 2.50GHz, instruction set [SSE2|AVX|AVX2|AVX512]
2025-03-05 23:57:09,008 - INFO - Thread count: 24 physical cores, 48 logical processors, using up to 32 threads
2025-03-05 23:57:09,008 - INFO - 
2025-03-05 23:57:09,010 - INFO - Academic license 2628134 - for non-commercial use only - registered to bs___@uw.edu
2025-03-05 23:57:09,010 - INFO - Optimize a model with 117256 rows, 44610 columns and 316072 nonzeros
2025-03-05 23:57:09,014 - INFO - Model fingerprint: 0x32c3b61e
2025-03-05 23:57:09,014 - INFO - Variable types: 0 continuous, 44610 integer (44542 binary)
2025-03-05 23:57:09,014 - INFO - Coefficient statistics:
2025-03-05 23:57:09,015 - INFO -   Matrix range     [1e+00, 1e+00]
2025-03-05 23:57:09,015 - INFO -   Objective range  [1e+00, 1e+03]
2025-03-05 23:57:09,015 - INFO -   Bounds range     [1e+00, 1e+00]
2025-03-05 23:57:09,015 - INFO -   RHS range        [1e+00, 4e+01]
2025-03-05 23:57:09,015 - INFO - 
2025-03-05 23:57:09,016 - INFO - Warning: Completing partial solution with 42780 unfixed non-continuous variables out of 44610
2025-03-05 23:57:09,125 - INFO - User MIP start produced solution with objective 36000 (0.12s)
2025-03-05 23:57:09,130 - INFO - Loaded user MIP start with objective 36000
2025-03-05 23:57:09,130 - INFO - 
2025-03-05 23:57:09,936 - INFO - Presolve removed 154 rows and 1208 columns
2025-03-05 23:57:09,936 - INFO - Presolve time: 0.81s
2025-03-05 23:57:09,936 - INFO - Presolved: 117102 rows, 43402 columns, 314762 nonzeros
2025-03-05 23:57:10,008 - INFO - Variable types: 0 continuous, 43402 integer (43336 binary)
2025-03-05 23:57:11,407 - INFO - 
2025-03-05 23:57:11,407 - INFO - Root relaxation: objective 2.328306e-10, 7267 iterations, 1.38 seconds (1.94 work units)
2025-03-05 23:57:11,476 - INFO - 
2025-03-05 23:57:11,476 - INFO -     Nodes    |    Current Node    |     Objective Bounds      |     Work
2025-03-05 23:57:11,476 - INFO -  Expl Unexpl |  Obj  Depth IntInf | Incumbent    BestBd   Gap | It/Node Time
2025-03-05 23:57:11,476 - INFO - 
2025-03-05 23:57:11,476 - INFO - H    0     0                       0.0000000 -3602000.0      -     -    2s
2025-03-05 23:57:11,760 - INFO -      0     0          -    0         0.00000    0.00000  0.00%     -    2s
2025-03-05 23:57:11,766 - INFO - 
2025-03-05 23:57:11,766 - INFO - Explored 1 nodes (10256 simplex iterations) in 2.76 seconds (3.09 work units)
2025-03-05 23:57:11,766 - INFO - Thread count was 32 (of 48 available processors)
2025-03-05 23:57:11,766 - INFO - 
2025-03-05 23:57:11,766 - INFO - Solution count 2: 0 36000 
2025-03-05 23:57:11,767 - INFO - 
2025-03-05 23:57:11,767 - INFO - Optimal solution found (tolerance 1.00e-01)
2025-03-05 23:57:11,768 - INFO - Best objective 0.000000000000e+00, best bound 0.000000000000e+00, gap 0.0000%
2025-03-05 23:57:11,768 - INFO - 
2025-03-05 23:57:11,768 - INFO - User-callback calls 311, time in user-callback 0.00 sec
2025-03-05 23:57:11,768 - INFO - ================================================================================
2025-03-05 23:57:11,768 - INFO - OPTIMIZATION RESULTS
2025-03-05 23:57:11,770 - INFO - STATUS: Found optimal solution!
2025-03-05 23:57:11,770 - INFO - SATISFIED REQUESTS: 1200 out of 1200
2025-03-05 23:57:11,770 - INFO - SATISFACTION RATE: 100.00%
2025-03-05 23:57:11,771 - INFO - CAPACITY VIOLATIONS: 0 sections over capacity
2025-03-05 23:57:11,771 - INFO - TOTAL OVERAGES: 0 students over capacity
2025-03-05 23:57:11,771 - INFO - OBJECTIVE VALUE: 0.0
2025-03-05 23:57:11,771 - INFO -   - Missed requests penalty: 0
2025-03-05 23:57:11,771 - INFO -   - Capacity violations penalty: 0.0
2025-03-05 23:57:11,771 - INFO - RUNTIME: 2.76 seconds
2025-03-05 23:57:11,771 - INFO - NODES EXPLORED: 1.0
2025-03-05 23:57:11,771 - INFO - MIP GAP: 0.00%
2025-03-05 23:57:11,771 - INFO - PEAK MEMORY USAGE: Not available
2025-03-05 23:57:11,771 - INFO - ================================================================================
2025-03-05 23:57:11,771 - INFO - Saving solution files...
2025-03-05 23:57:11,807 - INFO - Solution saved successfully
2025-03-05 23:57:11,807 - INFO - Warning: environment still referenced so free is deferred (Continue to use WLS)
